language ESSENCE' 1.0
letting values be [[2, 7, 0, 1, 0, 0, 0, 0, 9], [1, 3, 9, 4, 0, 2, 0, 5, 0], [0, 5, 8, 6, 3, 9, 0, 2, 7], [0, 0, 0, 0, 9, 7, 5, 8, 0], [0, 8, 2, 5, 0, 0, 9, 7, 4], [0, 0, 0, 8, 4, 6, 0, 1, 2], [7, 6, 5, 0, 2, 1, 8, 0, 3], [9, 2, 0, 3, 8, 4, 0, 6, 5], [8, 4, 3, 0, 0, 5, 2, 0, 1]]